data/lp_files/q3/62_0.lp
\ Model foo
\ LP format - for model browsing. Use MPS format to capture full model detail.
Minimize
  z
Subject To
 allocateEach[1]: x[1,1] + x[2,1] + x[3,1] + x[4,1] = 1
 allocateEach[2]: x[1,2] + x[2,2] + x[3,2] + x[4,2] = 1
 allocateAllCash: cashProportion[1] + cashProportion[2] + cashProportion[3]
   + cashProportion[4] = 1
 findWorstP[1,2]: z + 0.0471653617583247 cashProportion[1]
   - 0.0471653617583247 cashProportion[2] + 0.3487406848410527 x[1,1]
   + 0.6040939534006226 x[1,2] - 0.3487406848410527 x[2,1]
   - 0.6040939534006226 x[2,2] >= 0
 findWorstP[1,3]: z + 0.0471653617583247 cashProportion[1]
   - 0.0471653617583247 cashProportion[3] + 0.3487406848410527 x[1,1]
   + 0.6040939534006226 x[1,2] - 0.3487406848410527 x[3,1]
   - 0.6040939534006226 x[3,2] >= 0
 findWorstP[1,4]: z + 0.0471653617583247 cashProportion[1]
   - 0.0471653617583247 cashProportion[4] + 0.3487406848410527 x[1,1]
   + 0.6040939534006226 x[1,2] - 0.3487406848410527 x[4,1]
   - 0.6040939534006226 x[4,2] >= 0
 findWorstP[2,1]: z - 0.0473395190304867 cashProportion[1]
   + 0.0473395190304867 cashProportion[2] - 0.3634728271160765 x[1,1]
   - 0.5891876538534367 x[1,2] + 0.3634728271160765 x[2,1]
   + 0.5891876538534367 x[2,2] >= 0
 findWorstP[2,3]: z + 0.0473395190304867 cashProportion[2]
   - 0.0473395190304867 cashProportion[3] + 0.3634728271160765 x[2,1]
   + 0.5891876538534367 x[2,2] - 0.3634728271160765 x[3,1]
   - 0.5891876538534367 x[3,2] >= 0
 findWorstP[2,4]: z + 0.0473395190304867 cashProportion[2]
   - 0.0473395190304867 cashProportion[4] + 0.3634728271160765 x[2,1]
   + 0.5891876538534367 x[2,2] - 0.3634728271160765 x[4,1]
   - 0.5891876538534367 x[4,2] >= 0
 findWorstP[3,1]: z - 0.0387747188832881 cashProportion[1]
   + 0.0387747188832881 cashProportion[3] - 0.4907328421868942 x[1,1]
   - 0.4704924389298177 x[1,2] + 0.4907328421868942 x[3,1]
   + 0.4704924389298177 x[3,2] >= 0
 findWorstP[3,2]: z - 0.0387747188832881 cashProportion[2]
   + 0.0387747188832881 cashProportion[3] - 0.4907328421868942 x[2,1]
   - 0.4704924389298177 x[2,2] + 0.4907328421868942 x[3,1]
   + 0.4704924389298177 x[3,2] >= 0
 findWorstP[3,4]: z + 0.0387747188832881 cashProportion[3]
   - 0.0387747188832881 cashProportion[4] + 0.4907328421868942 x[3,1]
   + 0.4704924389298177 x[3,2] - 0.4907328421868942 x[4,1]
   - 0.4704924389298177 x[4,2] >= 0
 findWorstP[4,1]: z - 0.0376307669150297 cashProportion[1]
   + 0.0376307669150297 cashProportion[4] - 0.4743734477308648 x[1,1]
   - 0.4879957853541055 x[1,2] + 0.4743734477308648 x[4,1]
   + 0.4879957853541055 x[4,2] >= 0
 findWorstP[4,2]: z - 0.0376307669150297 cashProportion[2]
   + 0.0376307669150297 cashProportion[4] - 0.4743734477308648 x[2,1]
   - 0.4879957853541055 x[2,2] + 0.4743734477308648 x[4,1]
   + 0.4879957853541055 x[4,2] >= 0
 findWorstP[4,3]: z - 0.0376307669150297 cashProportion[3]
   + 0.0376307669150297 cashProportion[4] - 0.4743734477308648 x[3,1]
   - 0.4879957853541055 x[3,2] + 0.4743734477308648 x[4,1]
   + 0.4879957853541055 x[4,2] >= 0
Bounds
 z <= 1
 -infinity <= cashProportion[1] <= 1
 -infinity <= cashProportion[2] <= 1
 -infinity <= cashProportion[3] <= 1
 -infinity <= cashProportion[4] <= 1
Binaries
 x[1,1] x[1,2] x[2,1] x[2,2] x[3,1] x[3,2] x[4,1] x[4,2]
End
